\*Problem: Assemblage, PL *\
Maximize
    margetotale: + 10000 NL + 9000 NS
    
Subject To 
    NombreDheuresMaxParSemaines: + 0.06 NL + 0.05 NS <= 60
    EspaceDansParking: + 10 NL + 20 NS <= 15000
    NombreVoituresMaxLParSemaines: NL <= 800 
      
End
